
Gurobi 11.0.3 (win64, gurobi_cl) logging started Sun Nov 30 21:07:42 2025

Set parameter Username
Set parameter LicenseID to value 2741237
Set parameter LogFile to value "gurobi.log"
Using license file C:\Users\Feng\gurobi.lic
Academic license - for non-commercial use only - expires 2026-11-19
